c A SAT instance generated from a 3-CNF formula that had 24 clauses and 12 variables
p cnf 12 24
6 -8 5 0
-10 6 11 0
-10 6 2 0
6 -2 -5 0
-11 -1 -8 0
-11 -3 7 0
7 -9 -6 0
-7 -5 3 0
-7 9 2 0
-3 -11 -5 0
12 10 1 0
12 -1 9 0
1 3 10 0
-1 10 -2 0
11 -6 -5 0
-3 -10 -9 0
-4 -2 10 0
7 -2 -9 0
-3 5 -1 0
2 -12 -1 0
7 -11 8 0
-1 7 -3 0
9 -5 1 0
-3 4 11 0
